NAME : ftv70.66.2808.tour
COMMENT : Length = 2808
COMMENT : Found by LKH [Keld Helsgaun] Tue Dec 11 00:01:48 2018
TYPE : TOUR
DIMENSION : 72
TOUR_SECTION
1
29
26
28
7
11
8
10
14
67
13
16
20
17
19
22
23
65
25
31
32
2
46
44
43
70
42
39
36
33
27
24
21
18
15
12
9
60
57
71
58
59
62
56
53
47
55
52
68
50
49
40
61
34
35
37
38
64
41
69
63
48
51
54
45
66
30
6
3
72
4
5
-1
EOF
